gen cost
0 3209
1 3205
2 3073
3 3073
4 2927
5 2834
6 2834
7 2834
8 2834
9 2657
10 2657
11 2657
12 2657
13 2467
14 2467
15 2467
16 2467
17 2413
18 2413
19 2413
20 2413
21 2413
22 2413
23 2413
24 2339
25 2339
26 2339
27 2322
28 2278
29 2278
30 2278
31 2278
32 2273
33 2255
34 2255
35 2243
36 2243
37 2243
38 2214
39 2214
40 2214
41 2214
42 2214
43 2214
44 2214
45 2214
46 2205
47 2205
48 2205
49 2205
time 0
